Maximize
  - 39 x0 - 45 x1 + 0 x2 + 0 x3 + 0 x4 + 0 x5 + 0 x6 + 0 x7 - 45 x8 - 34 x9
   - 18 x10 + 20 x11 + 0 x12 + 0 x13 + 0 x14 - 42 x15 + 0 x16 + 0 x17
   + 0 x18 + 0 x19 + 27 x20 + 8 x21 - 37 x22 + 0 x23 - 49 x24 - 35 x25
   + 32 x26 + 0 x27 + 0 x28 + 0 x29 + 0 x30 + 47 x31 - 25 x32 - 40 x33
   + 0 x34 - 6 x35 + 0 x36 + 0 x37 + 0 x38 + 0 x39 - 5 x40 - 40 x41
   + 37 x42 + 0 x43 + 0 x44 + 0 x45 + 0 x46 + 17 x47 - 7 x48 - 44 x49 + [
   46 x0 * x3 + 78 x0 * x4 - 32 x0 * x5 + 14 x0 * x6 + 42 x0 * x7
   + 80 x0 * x10 + 6 x0 * x12 - 36 x0 * x18 - 62 x0 * x26 + 22 x0 * x27
   - 12 x0 * x29 + 26 x0 * x30 + 4 x0 * x32 - 44 x0 * x36 - 72 x0 * x43
   + 26 x0 * x47 - 64 x0 * x49 - 41 x1 ^2 - 94 x1 * x3 + 64 x1 * x7
   - 42 x1 * x9 - 24 x1 * x10 + 72 x1 * x11 - 48 x1 * x13 - 84 x1 * x21
   + 2 x1 * x23 - 30 x1 * x24 - 8 x1 * x30 - 60 x1 * x32 - 12 x1 * x33
   - 58 x1 * x34 + 62 x1 * x38 + 82 x1 * x41 - 22 x1 * x42 - 92 x1 * x43
   - 48 x1 * x44 - 84 x1 * x47 - 14 x1 * x49 + 14 x2 * x3 - 20 x2 * x9
   + 44 x2 * x10 - 6 x2 * x11 - 6 x2 * x12 - 24 x2 * x19 - 70 x2 * x21
   + 70 x2 * x22 + 80 x2 * x28 - 98 x2 * x29 - 8 x2 * x30 + 94 x2 * x34
   + 14 x2 * x37 - 54 x2 * x38 - 4 x2 * x39 + 6 x2 * x41 - 18 x2 * x42
   + 92 x2 * x46 + 30 x3 * x4 + 2 x3 * x7 - 70 x3 * x12 - 62 x3 * x13
   + 86 x3 * x14 - 96 x3 * x21 - 16 x3 * x22 - 4 x3 * x24 + 30 x3 * x27
   + 54 x3 * x29 - 96 x3 * x30 - 56 x3 * x34 + 46 x3 * x37 + 84 x3 * x44
   + 82 x3 * x45 - 84 x3 * x47 + 80 x4 * x6 + 94 x4 * x7 - 50 x4 * x8
   + 6 x4 * x10 + 28 x4 * x11 - 8 x4 * x16 + 82 x4 * x18 + 78 x4 * x19
   - 94 x4 * x23 + 66 x4 * x26 + 20 x4 * x30 - 32 x4 * x32 + 6 x4 * x35
   - 20 x4 * x36 + 82 x4 * x38 - 92 x4 * x45 - 34 x4 * x48 + 38 x5 ^2
   + 10 x5 * x9 - 18 x5 * x12 - 10 x5 * x13 + 68 x5 * x16 + 94 x5 * x18
   + 28 x5 * x23 - 28 x5 * x24 + 96 x5 * x28 - 20 x5 * x29 + 92 x5 * x30
   + 50 x5 * x32 - 96 x5 * x33 + 64 x5 * x42 + 34 x5 * x43 + 16 x5 * x49
   + 38 x6 ^2 + 50 x6 * x14 + 14 x6 * x19 - 70 x6 * x21 + 80 x6 * x23
   - 56 x6 * x25 + 18 x6 * x28 + 38 x6 * x29 - 16 x6 * x31 - 72 x6 * x37
   - 10 x6 * x40 - 6 x6 * x41 + 54 x6 * x42 - 90 x6 * x43 + 70 x6 * x49
   + 40 x7 * x9 + 42 x7 * x11 - 60 x7 * x12 + 6 x7 * x14 + 36 x7 * x21
   + 94 x7 * x32 + 98 x7 * x33 - 32 x7 * x34 - 50 x7 * x35 - 14 x7 * x37
   + 50 x7 * x40 - 46 x7 * x43 - 90 x7 * x44 + 76 x7 * x46 + 15 x8 ^2
   - 68 x8 * x11 - 44 x8 * x12 - 36 x8 * x13 - 10 x8 * x14 + 62 x8 * x15
   + 96 x8 * x17 + 14 x8 * x18 - 26 x8 * x19 - 18 x8 * x21 - 70 x8 * x23
   + 76 x8 * x26 + 32 x8 * x28 + 72 x8 * x31 - 42 x8 * x33 + 18 x8 * x35
   + 8 x8 * x38 + 96 x8 * x39 - 22 x8 * x40 - 28 x8 * x42 - 4 x8 * x43
   + 42 x8 * x44 + 64 x8 * x46 + 60 x9 * x14 + 6 x9 * x15 + 80 x9 * x20
   - 28 x9 * x22 + 16 x9 * x24 - 84 x9 * x26 + 20 x9 * x31 - 8 x9 * x33
   - 98 x9 * x36 - 94 x9 * x39 + 58 x9 * x42 - 50 x9 * x44 + 74 x9 * x47
   - 8 x9 * x49 - 20 x10 ^2 + 10 x10 * x11 + 52 x10 * x12 - 44 x10 * x13
   + 76 x10 * x17 + 74 x10 * x18 - 14 x10 * x19 + 6 x10 * x22 - 6 x10 * x24
   - 26 x10 * x29 + 86 x10 * x30 - 2 x10 * x31 - 22 x10 * x32
   - 74 x10 * x37 + 88 x10 * x38 + 42 x10 * x39 + 14 x10 * x40
   - 14 x10 * x42 + 12 x10 * x43 + 4 x10 * x45 + 48 x10 * x46
   - 70 x10 * x48 + 56 x10 * x49 + 36 x11 ^2 + 70 x11 * x12 + 32 x11 * x16
   + 2 x11 * x17 - 30 x11 * x19 + 50 x11 * x22 - 8 x11 * x26 - 68 x11 * x27
   + 70 x11 * x30 + 10 x11 * x35 + 34 x11 * x36 + 10 x11 * x40
   + 56 x11 * x41 - 70 x11 * x42 + 26 x11 * x44 - 88 x11 * x47 - 42 x12 ^2
   + 72 x12 * x14 - 66 x12 * x19 + 72 x12 * x20 - 80 x12 * x21
   + 20 x12 * x23 + 80 x12 * x24 - 60 x12 * x25 + 52 x12 * x27
   - 70 x12 * x29 - 58 x12 * x30 - 10 x12 * x31 + 32 x12 * x34
   - 88 x12 * x35 - 2 x12 * x36 + 8 x12 * x40 + 70 x12 * x42 + 88 x13 * x14
   + 44 x13 * x15 + 38 x13 * x17 + 32 x13 * x19 + 96 x13 * x20
   - 22 x13 * x23 + 38 x13 * x24 + 70 x13 * x28 + 22 x13 * x29
   - 2 x13 * x30 - 26 x13 * x31 - 92 x13 * x32 + 76 x13 * x33 + 4 x13 * x38
   - 20 x13 * x44 + 50 x13 * x49 - 48 x14 ^2 - 66 x14 * x16 + 16 x14 * x18
   + 42 x14 * x25 + 76 x14 * x26 - 48 x14 * x29 + 18 x14 * x30
   + 74 x14 * x32 - 18 x14 * x33 - 26 x14 * x34 + 94 x14 * x36
   + 64 x14 * x42 + 74 x14 * x48 + 88 x14 * x49 - 12 x15 * x20
   - 66 x15 * x23 + 14 x15 * x24 - 66 x15 * x25 + 82 x15 * x29
   + 72 x15 * x30 + 22 x15 * x31 + 52 x15 * x34 - 24 x15 * x35
   + 54 x15 * x36 - 16 x15 * x40 - 62 x15 * x41 - 24 x15 * x44
   + 42 x16 * x19 + 76 x16 * x20 + 98 x16 * x24 - 98 x16 * x27
   - 76 x16 * x28 - 70 x16 * x32 + 94 x16 * x33 - 74 x16 * x37
   - 98 x16 * x39 + 4 x16 * x40 + 84 x16 * x41 - 16 x16 * x42
   + 26 x16 * x43 - 22 x16 * x44 + 44 x16 * x47 + 3 x17 ^2 - 76 x17 * x18
   - 96 x17 * x25 + 76 x17 * x26 - 68 x17 * x28 - 28 x17 * x29
   - 70 x17 * x30 + 8 x17 * x37 - 80 x17 * x41 - 46 x17 * x46
   + 36 x18 * x21 - 28 x18 * x31 - 50 x18 * x35 + 26 x18 * x37
   + 82 x18 * x38 + 8 x18 * x42 - 12 x18 * x45 + 98 x18 * x46
   - 70 x18 * x48 + 78 x18 * x49 + 26 x19 ^2 + 32 x19 * x23 - 66 x19 * x24
   + 82 x19 * x25 - 28 x19 * x26 - 84 x19 * x28 - 78 x19 * x30
   + 2 x19 * x32 + 68 x19 * x40 - 24 x19 * x42 - 70 x19 * x43
   - 22 x19 * x45 - 66 x19 * x47 + 6 x19 * x48 - 18 x19 * x49 + 30 x20 ^2
   - 88 x20 * x21 - 20 x20 * x23 + 44 x20 * x24 + 18 x20 * x25
   - 98 x20 * x27 - 64 x20 * x30 - 14 x20 * x33 - 62 x20 * x35
   + 62 x20 * x36 - 88 x20 * x37 + 12 x20 * x41 - 6 x20 * x42
   + 50 x20 * x43 - 28 x20 * x45 - 62 x20 * x47 + 14 x21 * x22
   + 64 x21 * x23 + 84 x21 * x24 + 70 x21 * x25 - 16 x21 * x27
   - 58 x21 * x28 - 94 x21 * x29 + 96 x21 * x30 + 54 x21 * x37
   + 66 x21 * x38 - 46 x21 * x39 - 82 x21 * x40 - 34 x21 * x44
   + 96 x21 * x48 + 16 x22 * x24 - 92 x22 * x26 + 68 x22 * x27
   + 32 x22 * x29 + 16 x22 * x35 + 18 x22 * x39 + 8 x22 * x40
   - 76 x22 * x42 + 22 x22 * x45 + 44 x22 * x46 - 34 x22 * x47
   + 26 x22 * x48 + 28 x23 * x24 + 24 x23 * x26 + 16 x23 * x30
   - 28 x23 * x31 - 96 x23 * x36 + 24 x23 * x37 - 60 x23 * x38
   + 78 x23 * x40 - 74 x23 * x41 + 44 x23 * x45 - 28 x23 * x48
   - 10 x23 * x49 - 7 x24 ^2 - 2 x24 * x34 - 16 x24 * x37 - 40 x24 * x38
   - 40 x24 * x40 - 26 x24 * x42 - 14 x24 * x44 + 2 x24 * x45
   + 76 x24 * x46 + 94 x24 * x48 + 8 x25 ^2 - 16 x25 * x28 + 4 x25 * x30
   + 78 x25 * x31 - 98 x25 * x32 - 74 x25 * x39 + 2 x25 * x40
   - 86 x25 * x41 - 94 x25 * x42 - 78 x25 * x43 - 40 x25 * x47
   + 4 x25 * x48 - 54 x25 * x49 - 36 x26 ^2 - 28 x26 * x29 - 14 x26 * x30
   - 2 x26 * x32 + 68 x26 * x33 - 38 x26 * x34 + 22 x26 * x37
   + 80 x26 * x40 - 4 x26 * x44 - 98 x27 * x32 - 30 x27 * x34
   - 46 x27 * x38 + 74 x27 * x42 - 76 x27 * x43 - 6 x27 * x45
   + 88 x27 * x46 - 98 x27 * x47 + 27 x28 ^2 + 16 x28 * x30 - 80 x28 * x33
   + 32 x28 * x43 + 46 x28 * x45 - 22 x28 * x46 + 52 x29 * x30
   + 78 x29 * x31 - 58 x29 * x34 + 56 x29 * x36 - 44 x29 * x37
   + 72 x29 * x38 + 96 x29 * x39 - 12 x29 * x42 + 4 x29 * x45 + 32 x30 ^2
   - 26 x30 * x31 - 58 x30 * x32 + 90 x30 * x33 + 14 x30 * x34
   - 44 x30 * x35 - 40 x30 * x36 - 52 x30 * x37 + 14 x30 * x39
   - 94 x30 * x43 - 26 x30 * x44 + 54 x30 * x47 - 10 x30 * x48
   - 98 x30 * x49 - 2 x31 * x32 + 66 x31 * x33 - 86 x31 * x35
   - 98 x31 * x36 - 62 x31 * x37 + 52 x31 * x40 - 50 x31 * x41
   - 98 x31 * x42 + 28 x31 * x44 + 46 x31 * x46 + 64 x32 * x34
   + 24 x32 * x35 - 68 x32 * x36 + 96 x32 * x38 - 32 x32 * x39
   + 56 x32 * x40 - 42 x32 * x41 - 52 x32 * x42 - 88 x32 * x46
   - 84 x32 * x49 + 36 x33 ^2 + 58 x33 * x34 + 56 x33 * x36 - 22 x33 * x37
   - 18 x33 * x45 - 20 x33 * x46 - 72 x33 * x47 + 22 x33 * x48
   - 30 x33 * x49 - 34 x34 * x36 - 62 x34 * x39 + 74 x34 * x41
   - 10 x34 * x47 - 72 x34 * x49 - 8 x35 ^2 - 86 x35 * x36 - 26 x35 * x39
   + 76 x35 * x41 + 26 x35 * x43 + 64 x35 * x45 - 46 x35 * x47
   + 32 x35 * x49 - 2 x36 ^2 + 28 x36 * x37 - 34 x36 * x44 + 12 x36 * x46
   - 20 x36 * x47 + 82 x37 * x39 + 2 x37 * x41 - 94 x37 * x42
   + 24 x37 * x45 + 34 x38 ^2 - 16 x38 * x41 - 64 x38 * x47 + 16 x38 * x48
   - 52 x38 * x49 - 82 x39 * x43 + 50 x39 * x46 + 60 x39 * x47
   - 60 x39 * x49 - 25 x40 ^2 + 6 x40 * x41 + 2 x40 * x42 + 86 x40 * x44
   + 24 x40 * x49 - 3 x41 ^2 - 26 x41 * x42 + 28 x41 * x47 - 32 x41 * x49
   + 70 x43 * x45 + 68 x43 * x46 + 46 x43 * x48 - 16 x44 ^2 - 90 x44 * x45
   - 8 x44 * x49 + 8 x45 * x46 + 48 x45 * x49 - 3 x46 ^2 + 36 x46 * x49
   + 58 x47 * x48 ] / 2 
Subject To
Bounds
 x0 <= 1
 x1 <= 1
 x2 <= 1
 x3 <= 1
 x4 <= 1
 x5 <= 1
 x6 <= 1
 x7 <= 1
 x8 <= 1
 x9 <= 1
 x10 <= 1
 x11 <= 1
 x12 <= 1
 x13 <= 1
 x14 <= 1
 x15 <= 1
 x16 <= 1
 x17 <= 1
 x18 <= 1
 x19 <= 1
 x20 <= 1
 x21 <= 1
 x22 <= 1
 x23 <= 1
 x24 <= 1
 x25 <= 1
 x26 <= 1
 x27 <= 1
 x28 <= 1
 x29 <= 1
 x30 <= 1
 x31 <= 1
 x32 <= 1
 x33 <= 1
 x34 <= 1
 x35 <= 1
 x36 <= 1
 x37 <= 1
 x38 <= 1
 x39 <= 1
 x40 <= 1
 x41 <= 1
 x42 <= 1
 x43 <= 1
 x44 <= 1
 x45 <= 1
 x46 <= 1
 x47 <= 1
 x48 <= 1
 x49 <= 1
End
